12      4       
13      11      13      15      
0       0       0       0       0       3       2       3       4       
1       8       1       8       9       3       7       8       11      
1       8       8       2       8       1       5       
1       1       3       3       4       1       8       
7       6       1       8       8       1       6       
9       9       5       6       10      1       9       
4       4       3       6       8       1       10      
6       3       5       5       9       1       12      
8       3       5       5       7       1       12      
4       7       2       7       4       1       12      
5       7       7       4       5       1       12      
0       0       0       0       0       0       
